k = 78;
b = 39;
AtomicConstraints =  [|
6, 16|
	6, 17|
	6, 18|
	6, 19|
	6, 20|
	6, 43|
	6, 42|
	6, 21|
	6, 22|
	6, 23|
	6, 24|
	6, 25|
	7, 16|
	7, 17|
	7, 18|
	7, 19|
	7, 20|
	7, 43|
	7, 42|
	7, 21|
	7, 22|
	7, 23|
	7, 24|
	7, 25|
	8, 16|
	8, 17|
	8, 18|
	8, 19|
	8, 20|
	8, 43|
	8, 42|
	8, 21|
	8, 22|
	8, 23|
	8, 24|
	8, 25|
	9, 16|
	9, 17|
	9, 18|
	9, 19|
	9, 20|
	9, 43|
	9, 42|
	9, 21|
	9, 22|
	9, 23|
	9, 24|
	9, 25|
	10, 16|
	10, 17|
	10, 18|
	10, 19|
	10, 20|
	10, 43|
	10, 42|
	10, 21|
	10, 22|
	10, 23|
	10, 24|
	10, 25|
	12, 1|
	12, 2|
	12, 3|
	12, 4|
	12, 5|
	13, 1|
	13, 2|
	13, 3|
	13, 4|
	13, 5|
	43, 16|
	43, 17|
	43, 25|
	42, 16|
	42, 17|
	42, 18|
	42, 25|
	21, 16|
	21, 17|
	21, 18|
	21, 19|
	22, 17|
	22, 18|
	22, 19|
	22, 20|
	23, 18|
	23, 19|
	23, 20|
	24, 19|
	24, 20|
	26, 71|
	26, 35|
	26, 36|
	26, 37|
	26, 70|
	26, 52|
	26, 51|
	26, 38|
	26, 39|
	27, 71|
	27, 35|
	27, 36|
	27, 37|
	27, 70|
	27, 52|
	27, 51|
	27, 38|
	27, 39|
	28, 71|
	28, 35|
	28, 36|
	28, 37|
	28, 70|
	28, 52|
	28, 51|
	28, 38|
	28, 39|
	29, 71|
	29, 35|
	29, 36|
	29, 37|
	29, 70|
	29, 52|
	29, 51|
	29, 38|
	29, 39|
	30, 71|
	30, 35|
	30, 36|
	30, 37|
	30, 70|
	30, 52|
	30, 51|
	30, 38|
	30, 39|
	31, 1|
	31, 2|
	31, 3|
	31, 4|
	31, 5|
	31, 16|
	31, 17|
	31, 18|
	31, 19|
	31, 20|
	31, 42|
	31, 21|
	31, 22|
	31, 23|
	31, 24|
	32, 1|
	32, 2|
	32, 3|
	32, 4|
	32, 5|
	32, 16|
	32, 17|
	32, 18|
	32, 19|
	32, 20|
	32, 43|
	32, 42|
	32, 21|
	32, 22|
	32, 23|
	32, 24|
	32, 25|
	33, 1|
	33, 2|
	33, 3|
	33, 4|
	33, 5|
	33, 20|
	33, 24|
	34, 1|
	34, 2|
	34, 3|
	34, 4|
	34, 5|
	34, 19|
	34, 20|
	34, 23|
	34, 24|
	70, 71|
	52, 71|
	52, 70|
	51, 71|
	51, 70|
	78, 74|
	78, 75|
	78, 76|
	78, 64|
	55, 44|
	55, 78|
	55, 74|
	55, 75|
	55, 76|
	55, 77|
	56, 44|
	56, 78|
	56, 74|
	56, 75|
	56, 76|
	56, 64|
	56, 77|
	60, 44|
	60, 55|
	60, 74|
	60, 75|
	60, 77|
	57, 44|
	57, 78|
	57, 55|
	57, 74|
	57, 75|
	57, 76|
	57, 77|
	58, 44|
	58, 78|
	58, 55|
	58, 56|
	58, 74|
	58, 75|
	58, 76|
	58, 64|
	58, 77|
	59, 44|
	59, 78|
	59, 56|
	59, 74|
	59, 75|
	59, 76|
	59, 64|
	59, 77|
	41, 44|
	41, 55|
	41, 60|
	41, 74|
	41, 57|
	41, 75|
	41, 77|
	61, 44|
	61, 78|
	61, 55|
	61, 60|
	61, 74|
	61, 57|
	61, 58|
	61, 75|
	61, 76|
	61, 77|
	62, 44|
	62, 78|
	62, 55|
	62, 56|
	62, 60|
	62, 74|
	62, 57|
	62, 58|
	62, 75|
	62, 76|
	62, 77|
	63, 44|
	63, 78|
	63, 55|
	63, 56|
	63, 60|
	63, 74|
	63, 57|
	63, 58|
	63, 59|
	63, 75|
	63, 76|
	63, 64|
	63, 77|
	40, 44|
	40, 55|
	40, 60|
	40, 74|
	40, 57|
	40, 41|
	40, 61|
	40, 62|
	40, 75|
	40, 77|
	65, 44|
	65, 78|
	65, 55|
	65, 60|
	65, 74|
	65, 57|
	65, 58|
	65, 41|
	65, 61|
	65, 62|
	65, 63|
	65, 75|
	65, 76|
	65, 77|
	66, 44|
	66, 78|
	66, 55|
	66, 56|
	66, 60|
	66, 74|
	66, 57|
	66, 58|
	66, 41|
	66, 61|
	66, 62|
	66, 63|
	66, 75|
	66, 76|
	66, 77|
	67, 44|
	67, 78|
	67, 55|
	67, 56|
	67, 60|
	67, 74|
	67, 57|
	67, 58|
	67, 59|
	67, 61|
	67, 62|
	67, 63|
	67, 75|
	67, 76|
	67, 64|
	67, 77|
	68, 44|
	68, 78|
	68, 55|
	68, 56|
	68, 60|
	68, 74|
	68, 57|
	68, 58|
	68, 59|
	68, 62|
	68, 63|
	68, 75|
	68, 76|
	68, 64|
	68, 77|
	69, 44|
	69, 78|
	69, 55|
	69, 56|
	69, 60|
	69, 74|
	69, 57|
	69, 58|
	69, 59|
	69, 63|
	69, 75|
	69, 76|
	69, 64|
	69, 77|
	72, 44|
	72, 55|
	72, 60|
	72, 74|
	72, 57|
	72, 41|
	72, 61|
	72, 62|
	72, 75|
	72, 40|
	72, 65|
	72, 66|
	72, 77|
	49, 44|
	49, 78|
	49, 55|
	49, 60|
	49, 74|
	49, 57|
	49, 58|
	49, 41|
	49, 61|
	49, 62|
	49, 63|
	49, 75|
	49, 40|
	49, 65|
	49, 66|
	49, 67|
	49, 76|
	49, 77|
	45, 44|
	45, 78|
	45, 55|
	45, 56|
	45, 60|
	45, 74|
	45, 57|
	45, 58|
	45, 41|
	45, 61|
	45, 62|
	45, 63|
	45, 75|
	45, 40|
	45, 65|
	45, 66|
	45, 67|
	45, 68|
	45, 76|
	45, 77|
	46, 44|
	46, 78|
	46, 55|
	46, 56|
	46, 60|
	46, 74|
	46, 57|
	46, 58|
	46, 59|
	46, 41|
	46, 61|
	46, 62|
	46, 63|
	46, 75|
	46, 40|
	46, 65|
	46, 66|
	46, 67|
	46, 68|
	46, 69|
	46, 76|
	46, 64|
	46, 77|
	47, 44|
	47, 78|
	47, 55|
	47, 56|
	47, 60|
	47, 74|
	47, 57|
	47, 58|
	47, 59|
	47, 41|
	47, 61|
	47, 62|
	47, 63|
	47, 75|
	47, 40|
	47, 65|
	47, 66|
	47, 67|
	47, 68|
	47, 69|
	47, 76|
	47, 64|
	47, 77|
	48, 44|
	48, 78|
	48, 55|
	48, 56|
	48, 60|
	48, 74|
	48, 57|
	48, 58|
	48, 59|
	48, 41|
	48, 61|
	48, 62|
	48, 63|
	48, 75|
	48, 65|
	48, 66|
	48, 67|
	48, 68|
	48, 69|
	48, 76|
	48, 64|
	48, 77|
	73, 44|
	73, 55|
	73, 60|
	73, 74|
	73, 57|
	73, 41|
	73, 61|
	73, 62|
	73, 75|
	73, 40|
	73, 65|
	73, 66|
	73, 72|
	73, 49|
	73, 45|
	73, 77|
	53, 44|
	53, 78|
	53, 55|
	53, 60|
	53, 74|
	53, 57|
	53, 58|
	53, 41|
	53, 61|
	53, 62|
	53, 63|
	53, 75|
	53, 40|
	53, 65|
	53, 66|
	53, 67|
	53, 72|
	53, 49|
	53, 45|
	53, 76|
	53, 46|
	53, 77|
	54, 44|
	54, 78|
	54, 55|
	54, 56|
	54, 60|
	54, 74|
	54, 57|
	54, 58|
	54, 59|
	54, 41|
	54, 61|
	54, 62|
	54, 63|
	54, 75|
	54, 40|
	54, 65|
	54, 66|
	54, 67|
	54, 68|
	54, 69|
	54, 49|
	54, 45|
	54, 76|
	54, 46|
	54, 47|
	54, 48|
	54, 64|
	54, 77|
	50, 44|
	50, 78|
	50, 55|
	50, 56|
	50, 60|
	50, 74|
	50, 57|
	50, 58|
	50, 59|
	50, 41|
	50, 61|
	50, 62|
	50, 63|
	50, 75|
	50, 40|
	50, 65|
	50, 66|
	50, 67|
	50, 68|
	50, 69|
	50, 76|
	50, 46|
	50, 47|
	50, 48|
	50, 64|
	50, 77|
	77, 44|
	77, 74|
	77, 75|
	77, 76|];
DisjunctiveConstraints =  [|2, 1, 2, 3|
	3, 2, 3, 4|
	4, 3, 4, 5|
	6, 7, 6, 10|
	7, 8, 7, 6|
	8, 9, 8, 7|
	12, 1, 40, 12|
	12, 2, 12, 41|
	13, 1, 13, 40|
	15, 11, 15, 14|
	16, 25, 16, 17|
	17, 16, 17, 18|
	18, 17, 18, 19|
	19, 18, 19, 20|
	42, 43, 42, 21|
	21, 42, 21, 22|
	22, 21, 22, 23|
	23, 22, 23, 24|
	27, 28, 27, 26|
	28, 29, 28, 27|
	29, 30, 29, 28|
	29, 72, 33, 29|
	29, 73, 34, 29|
	31, 17, 31, 56|
	31, 42, 3, 31|
	31, 21, 31, 60|
	31, 25, 64, 31|
	32, 3, 32, 42|
	32, 16, 32, 55|
	32, 43, 4, 32|
	33, 19, 58, 33|
	33, 24, 63, 33|
	34, 18, 57, 34|
	34, 20, 34, 59|
	34, 23, 62, 34|
	34, 24, 34, 63|
	36, 37, 36, 35|
	52, 71, 32, 52|
	52, 70, 31, 52|
	51, 31, 51, 70|
	51, 71, 51, 32|
	56, 64, 25, 56|
	60, 74, 35, 60|
	57, 58, 57, 60|
	57, 75, 36, 57|
	57, 77, 38, 57|
	58, 59, 58, 57|
	74, 75, 74, 44|
	41, 57, 18, 41|
	41, 74, 35, 41|
	61, 55, 16, 61|
	61, 62, 61, 41|
	61, 75, 36, 61|
	61, 77, 38, 61|
	62, 78, 39, 62|
	62, 58, 19, 62|
	62, 63, 62, 61|
	62, 76, 37, 62|
	62, 77, 62, 38|
	63, 78, 63, 39|
	63, 56, 17, 63|
	40, 5, 40, 44|
	40, 57, 18, 40|
	40, 74, 35, 40|
	65, 55, 16, 65|
	65, 74, 65, 35|
	65, 75, 36, 65|
	65, 66, 65, 40|
	65, 77, 38, 65|
	66, 78, 39, 66|
	66, 58, 19, 66|
	66, 67, 66, 65|
	66, 75, 66, 36|
	66, 76, 37, 66|
	66, 77, 66, 38|
	67, 78, 67, 39|
	67, 56, 17, 67|
	67, 68, 67, 66|
	67, 76, 67, 37|
	75, 76, 75, 74|
	68, 59, 20, 68|
	68, 69, 68, 67|
	68, 64, 25, 68|
	69, 25, 69, 64|
	72, 5, 72, 44|
	72, 21, 72, 60|
	72, 57, 18, 72|
	72, 74, 35, 72|
	72, 61, 22, 72|
	49, 18, 49, 57|
	49, 55, 16, 49|
	49, 74, 49, 35|
	49, 62, 23, 49|
	49, 75, 36, 49|
	49, 45, 49, 72|
	49, 77, 38, 49|
	45, 16, 45, 55|
	45, 78, 39, 45|
	45, 58, 19, 45|
	45, 63, 24, 45|
	45, 75, 45, 36|
	45, 46, 45, 49|
	45, 76, 37, 45|
	45, 77, 45, 38|
	46, 19, 46, 58|
	46, 78, 46, 39|
	46, 56, 17, 46|
	46, 47, 46, 45|
	46, 76, 46, 37|
	47, 17, 47, 56|
	47, 59, 20, 47|
	47, 48, 47, 46|
	47, 64, 25, 47|
	48, 20, 48, 59|
	48, 25, 48, 64|
	73, 5, 73, 44|
	73, 21, 73, 60|
	73, 57, 18, 73|
	73, 74, 35, 73|
	73, 61, 22, 73|
	53, 18, 53, 57|
	53, 55, 16, 53|
	53, 74, 53, 35|
	53, 62, 23, 53|
	53, 75, 36, 53|
	53, 54, 53, 73|
	53, 77, 38, 53|
	76, 64, 76, 75|
	54, 19, 54, 58|
	54, 78, 54, 39|
	54, 56, 17, 54|
	54, 76, 54, 37|
	54, 50, 54, 53|
	54, 64, 25, 54|
	50, 20, 50, 59|
	50, 25, 50, 64|];
SoftAtomicConstraints =  [|
1, 2|
2, 3|
3, 4|
4, 5|
7, 6|
8, 7|
9, 8|
6, 10|
12, 11|
13, 12|
31, 13|
15, 14|
11, 15|
25, 16|
16, 17|
17, 18|
18, 19|
19, 20|
42, 21|
21, 22|
22, 23|
23, 24|
27, 26|
28, 27|
29, 28|
30, 29|
32, 31|
34, 33|
36, 35|
37, 36|
39, 38|
65, 40|
61, 41|
43, 42|
74, 44|
46, 45|
47, 46|
48, 47|
45, 49|
51, 52|
54, 53|
50, 54|
56, 55|
58, 57|
59, 58|
57, 60|
62, 61|
63, 62|
66, 65|
67, 66|
68, 67|
69, 68|
35, 71|
49, 72|
53, 73|
75, 74|
76, 75|
64, 76|
78, 77|];
DirectSuccessors =  [];
